25 75 75 76 38 62 38 59 14 13 46 31 57 92  3
67  5 11 11 40 34 77 42 35 96 22 55 21 29 16
22 98  8 35 59 31 13 46 52 22 18 19 64 29 70
99 42  2 35 11 92 88 97 21 56 17 43 27 19 23
50  5 59 71 47 39 82 35 12  2 39 42 52 65 35